20	5
0	2	1	2
1	1	6
2	2	10	5
3	1	11
4	1	14
5	1	19
6	2	5	8
7	1	18
8	1	13
9	1	17
10	1	15
11	0
12	2	9	20
13	2	3	19
14	0
15	1	12
16	1	10
17	1	4
18	1	21
19	1	21
20	1	21
21	0
0	0	0	0	0	0	0
1	2	2	4	0	0	0
2	6	3	1	0	0	0
3	2	0	0	0	0	1
4	1	4	3	0	0	4
5	8	0	1	1	0	0
6	6	5	4	2	0	3
7	5	0	1	1	1	2
8	8	2	0	2	0	5
9	2	4	0	1	0	0
10	1	1	5	4	0	0
11	8	0	0	2	1	0
12	5	0	2	1	0	0
13	7	0	0	1	3	5
14	7	4	0	4	0	0
15	10	0	0	0	0	5
16	10	5	0	4	0	0
17	8	1	5	0	5	5
18	1	0	3	4	4	0
19	9	0	0	0	4	4
20	1	3	1	0	3	0
21	0	0	0	0	0	0
8	7	6	5	8
